\Problem name: 

Minimize
OBJROW: -2 x_0 -10 x_1 -8 x_2 -7 x_3 -10 x_4 -10 x_5 -6 x_6
Subject To
constr(0):  5 x_0 + 7 x_1 + 8 x_2 + x_3 + 7 x_4 + 5 x_5 + 6 x_6 <= 20
constr(1):  x_0 + 6 x_1 + 4 x_2 + 9 x_3 + 10 x_4 + 6 x_5 + 10 x_6 <= 30
constr(2):  4 x_0 + 4 x_1 + 4 x_2 + x_3 + 5 x_4 + 5 x_5 + 10 x_6 <= 40
constr(3):  3 x_0 + 10 x_1 + 8 x_2 + x_3 + 3 x_4 + 3 x_5 + 8 x_6 <= 30
constr(4):  10 x_0 + 8 x_1 + 9 x_2 + 9 x_3 + 7 x_4 + 6 x_5 + 10 x_6 <= 20
constr(5):  6 x_0 + 6 x_1 + 3 x_2 + 6 x_3 + 3 x_4 + 7 x_5 + 2 x_6 <= 80
constr(6):  7 x_0 + 10 x_1 + 7 x_2 + 8 x_3 + 7 x_4 + 8 x_5 + 7 x_6 <= 100
constr(7):  9 x_0 + 8 x_1 + x_2 + x_3 + 8 x_4 + 10 x_5 + 2 x_6 <= 90
constr(8):  x_0 + 5 x_1 + 3 x_2 + 10 x_3 + 2 x_4 + 4 x_5 + 9 x_6 <= 70
constr(9):  9 x_0 + 6 x_1 + x_2 + 4 x_3 + 7 x_4 + 5 x_5 + 10 x_6 <= 60
constr(10):  5 x_0 + 7 x_1 + 4 x_2 + 4 x_3 + 3 x_4 + 4 x_5 + 10 x_6 <= 40
constr(11):  x_5 <= 3
constr(12):  x_4 >= 1
Bounds
End
